n = 39;
rows = 107;
supports = [|
  {1},{1},
 |{1},6..35,
 |{2},{2},
 |{2},7..36,
 |{3},{3},
 |{3},8..37,
 |{4},{4},
 |{4},9..38,
 |{5},{5},
 |{5},10..39,
 |{6},{6},
 |{6},{1},
 |{6},11..39,
 |{7},{7},
 |{7},1..2,
 |{7},12..39,
 |{8},{8},
 |{8},1..3,
 |{8},13..39,
 |{9},{9},
 |{9},1..4,
 |{9},14..39,
 |{10},{10},
 |{10},1..5,
 |{10},15..39,
 |{11},{11},
 |{11},1..6,
 |{11},16..39,
 |{12},{12},
 |{12},1..7,
 |{12},17..39,
 |{13},{13},
 |{13},1..8,
 |{13},18..39,
 |{14},{14},
 |{14},1..9,
 |{14},19..39,
 |{15},{15},
 |{15},1..10,
 |{15},20..39,
 |{16},{16},
 |{16},1..11,
 |{16},21..39,
 |{17},{17},
 |{17},1..12,
 |{17},22..39,
 |{18},{18},
 |{18},1..13,
 |{18},23..39,
 |{19},{19},
 |{19},1..14,
 |{19},24..39,
 |{20},{20},
 |{20},1..15,
 |{20},25..39,
 |{21},{21},
 |{21},1..16,
 |{21},26..39,
 |{22},{22},
 |{22},1..17,
 |{22},27..39,
 |{23},{23},
 |{23},1..18,
 |{23},28..39,
 |{24},{24},
 |{24},1..19,
 |{24},29..39,
 |{25},{25},
 |{25},1..20,
 |{25},30..39,
 |{26},{26},
 |{26},1..21,
 |{26},31..39,
 |{27},{27},
 |{27},1..22,
 |{27},32..39,
 |{28},{28},
 |{28},1..23,
 |{28},33..39,
 |{29},{29},
 |{29},1..24,
 |{29},34..39,
 |{30},{30},
 |{30},1..25,
 |{30},35..39,
 |{31},{31},
 |{31},1..26,
 |{31},36..39,
 |{32},{32},
 |{32},1..27,
 |{32},37..39,
 |{33},{33},
 |{33},1..28,
 |{33},38..39,
 |{34},{34},
 |{34},1..29,
 |{34},{39},
 |{35},{35},
 |{35},1..30,
 |{36},{36},
 |{36},2..31,
 |{37},{37},
 |{37},3..32,
 |{38},{38},
 |{38},4..33,
 |{39},{39},
 |{39},5..34 |];

t = 46;

indexes = [|
    0,5,
  | 0,29,
  | 1,8,
  | 1,35,
  | 2,23,
  | 2,25,
  | 2,35,
  | 3,21,
  | 4,29,
  | 5,11,
  | 6,25,
  | 7,14,
  | 7,21,
  | 7,22,
  | 8,24,
  | 8,32,
  | 9,12,
  | 10,34,
  | 10,38,
  | 11,38,
  | 12,17,
  | 12,29,
  | 13,32,
  | 13,35,
  | 14,33,
  | 15,22,
  | 15,26,
  | 15,27,
  | 16,31,
  | 17,18,
  | 17,19,
  | 17,31,
  | 18,31,
  | 19,36,
  | 20,32,
  | 21,33,
  | 22,30,
  | 26,27,
  | 26,36,
  | 27,29,
  | 28,34,
  | 28,38,
  | 30,35,
  | 33,34,
  | 34,37,
  | 35,36 |];

